0 35276 
1 35266 
2 35189 
3 35145 
4 35123 
5 34964 
6 34858 
7 34824 
8 34814 
9 34787 
10 34760 
11 34753 
12 34705 
13 34690 
14 34532 
15 34501 
16 34462 
17 34446 
18 34407 
19 34393 
20 34296 
21 34261 
22 34248 
23 34223 
24 34197 
25 34186 
26 34117 
27 34083 
28 34080 
29 34027 
30 33978 
31 33934 
32 33820 
33 33784 
34 33761 
35 33696 
36 33695 
37 33639 
38 33603 
39 33487 
40 33477 
41 33466 
42 33424 
43 33347 
44 33333 
45 33328 
46 33264 
47 33173 
48 33153 
49 33142 
50 33094 
51 32951 
52 32935 
53 32717 
54 32553 
55 32372 
56 32340 
57 32322 
58 31852 
59 31684 
60 31678 
61 31548 
62 31481 
63 31456 
64 31451 
65 31416 
66 31370 
67 30895 
68 30833 
69 30574 
70 30148 
71 30113 
72 30088 
73 30074 
74 29969 
75 29532 
76 29308 
77 29131 
78 28889 
79 28591 
80 27076 
81 27076 

